certificates/rado_a12_c136_N30.drat
-26 -27 -30 0
-10 -28 0
d -10 -12 -28 0
10 -30 0
-30 0
-10 0
26 0
13 0
14 0
-6 0
11 0
22 0
-7 0
-15 0
-18 0
0
